c description: Random 2-CNF over 15 variables and 110 clauses
c generator: CNFgen (0.9.0)
c copyright: (C) 2012-2020 Massimo Lauria <massimo.lauria@uniroma1.it>
c url: https://massimolauria.net/cnfgen
c
p cnf 15 110
9 -13 0
-1 -7 0
-1 -5 0
11 -13 0
7 15 0
8 -15 0
-6 11 0
-7 8 0
6 -15 0
-9 13 0
5 -11 0
6 13 0
-1 12 0
3 -4 0
1 2 0
9 15 0
10 -14 0
13 -14 0
11 13 0
4 -11 0
6 -10 0
-9 -12 0
13 14 0
10 -11 0
8 9 0
9 -11 0
1 -7 0
-4 9 0
-6 -10 0
1 -3 0
-3 8 0
-1 10 0
-8 -15 0
-9 -13 0
-3 14 0
-6 -7 0
1 -15 0
8 -12 0
1 11 0
12 -15 0
10 -12 0
-13 14 0
-6 -12 0
-12 -14 0
-6 10 0
1 15 0
-8 13 0
1 9 0
-1 11 0
-9 14 0
2 -10 0
-5 -13 0
6 9 0
-2 7 0
-1 8 0
-4 -12 0
3 -14 0
-2 9 0
-9 -14 0
4 -8 0
7 14 0
7 8 0
-1 3 0
-5 10 0
-9 11 0
3 9 0
-3 -8 0
-8 12 0
-4 -9 0
11 14 0
-11 15 0
1 -8 0
-10 11 0
4 13 0
11 -15 0
-1 -3 0
2 9 0
3 -7 0
-9 12 0
-2 -11 0
-10 12 0
-4 8 0
7 10 0
8 -14 0
5 10 0
7 13 0
-5 9 0
-12 15 0
1 -11 0
-13 -15 0
-3 5 0
4 7 0
-5 -10 0
12 -14 0
-2 5 0
8 10 0
-1 13 0
11 -12 0
-1 4 0
6 -12 0
3 -15 0
1 -9 0
-9 10 0
4 -6 0
-1 -13 0
14 -15 0
-1 -8 0
3 -11 0
-7 -13 0
-10 14 0